c nIsolatedPIs 0
c maxPI 32
p cnf 289 772
c gate 33 14 -30 0
14 -33 0
-30 -33 0
-14 30 33 0
c gate 34 -14 30 0
-14 -34 0
30 -34 0
14 -30 34 0
c gate 35 -33 -34 0
-33 -35 0
-34 -35 0
33 34 35 0
c gate 36 13 29 0
13 -36 0
29 -36 0
-13 -29 36 0
c gate 37 12 28 0
12 -37 0
28 -37 0
-12 -28 37 0
c gate 38 -36 -37 0
-36 -38 0
-37 -38 0
36 37 38 0
c gate 39 -35 38 0
-35 -39 0
38 -39 0
35 -38 39 0
c gate 40 35 -38 0
35 -40 0
-38 -40 0
-35 38 40 0
c gate 41 -39 -40 0
-39 -41 0
-40 -41 0
39 40 41 0
c gate 42 -13 -29 0
-13 -42 0
-29 -42 0
13 29 42 0
c gate 43 -7 -23 0
-7 -43 0
-23 -43 0
7 23 43 0
c gate 44 7 23 0
7 -44 0
23 -44 0
-7 -23 44 0
c gate 45 -43 -44 0
-43 -45 0
-44 -45 0
43 44 45 0
c gate 46 -6 -22 0
-6 -46 0
-22 -46 0
6 22 46 0
c gate 47 6 22 0
6 -47 0
22 -47 0
-6 -22 47 0
c gate 48 -46 -47 0
-46 -48 0
-47 -48 0
46 47 48 0
c gate 49 5 21 0
5 -49 0
21 -49 0
-5 -21 49 0
c gate 50 5 -21 0
5 -50 0
-21 -50 0
-5 21 50 0
c gate 51 -5 21 0
-5 -51 0
21 -51 0
5 -21 51 0
c gate 52 -50 -51 0
-50 -52 0
-51 -52 0
50 51 52 0
c gate 53 4 20 0
4 -53 0
20 -53 0
-4 -20 53 0
c gate 54 -4 -20 0
-4 -54 0
-20 -54 0
4 20 54 0
c gate 55 3 19 0
3 -55 0
19 -55 0
-3 -19 55 0
c gate 56 1 17 0
1 -56 0
17 -56 0
-1 -17 56 0
c gate 57 2 18 0
2 -57 0
18 -57 0
-2 -18 57 0
c gate 58 -56 -57 0
-56 -58 0
-57 -58 0
56 57 58 0
c gate 59 -3 19 0
-3 -59 0
19 -59 0
3 -19 59 0
c gate 60 3 -19 0
3 -60 0
-19 -60 0
-3 19 60 0
c gate 61 -59 -60 0
-59 -61 0
-60 -61 0
59 60 61 0
c gate 62 -58 -61 0
-58 -62 0
-61 -62 0
58 61 62 0
c gate 63 -55 -62 0
-55 -63 0
-62 -63 0
55 62 63 0
c gate 64 -54 -63 0
-54 -64 0
-63 -64 0
54 63 64 0
c gate 65 -53 -64 0
-53 -65 0
-64 -65 0
53 64 65 0
c gate 66 -2 -18 0
-2 -66 0
-18 -66 0
2 18 66 0
c gate 67 -55 66 0
-55 -67 0
66 -67 0
55 -66 67 0
c gate 68 -53 67 0
-53 -68 0
67 -68 0
53 -67 68 0
c gate 69 -65 -68 0
-65 -69 0
-68 -69 0
65 68 69 0
c gate 70 -52 69 0
-52 -70 0
69 -70 0
52 -69 70 0
c gate 71 -49 -70 0
-49 -71 0
-70 -71 0
49 70 71 0
c gate 72 48 71 0
48 -72 0
71 -72 0
-48 -71 72 0
c gate 73 -46 -72 0
-46 -73 0
-72 -73 0
46 72 73 0
c gate 74 45 -73 0
45 -74 0
-73 -74 0
-45 73 74 0
c gate 75 -8 -24 0
-8 -75 0
-24 -75 0
8 24 75 0
c gate 76 -43 -75 0
-43 -76 0
-75 -76 0
43 75 76 0
c gate 77 -74 76 0
-74 -77 0
76 -77 0
74 -76 77 0
c gate 78 8 24 0
8 -78 0
24 -78 0
-8 -24 78 0
c gate 79 9 25 0
9 -79 0
25 -79 0
-9 -25 79 0
c gate 80 -78 -79 0
-78 -80 0
-79 -80 0
78 79 80 0
c gate 81 -77 80 0
-77 -81 0
80 -81 0
77 -80 81 0
c gate 82 -10 -26 0
-10 -82 0
-26 -82 0
10 26 82 0
c gate 83 -9 -25 0
-9 -83 0
-25 -83 0
9 25 83 0
c gate 84 -82 -83 0
-82 -84 0
-83 -84 0
82 83 84 0
c gate 85 -81 84 0
-81 -85 0
84 -85 0
81 -84 85 0
c gate 86 10 26 0
10 -86 0
26 -86 0
-10 -26 86 0
c gate 87 11 27 0
11 -87 0
27 -87 0
-11 -27 87 0
c gate 88 -86 -87 0
-86 -88 0
-87 -88 0
86 87 88 0
c gate 89 -85 88 0
-85 -89 0
88 -89 0
85 -88 89 0
c gate 90 -11 -27 0
-11 -90 0
-27 -90 0
11 27 90 0
c gate 91 -12 -28 0
-12 -91 0
-28 -91 0
12 28 91 0
c gate 92 -90 -91 0
-90 -92 0
-91 -92 0
90 91 92 0
c gate 93 -89 92 0
-89 -93 0
92 -93 0
89 -92 93 0
c gate 94 -37 -93 0
-37 -94 0
-93 -94 0
37 93 94 0
c gate 95 -36 94 0
-36 -95 0
94 -95 0
36 -94 95 0
c gate 96 -42 -95 0
-42 -96 0
-95 -96 0
42 95 96 0
c gate 97 -35 -96 0
-35 -97 0
-96 -97 0
35 96 97 0
c gate 98 35 96 0
35 -98 0
96 -98 0
-35 -96 98 0
c gate 99 -97 -98 0
-97 -99 0
-98 -99 0
97 98 99 0
c gate 100 -41 99 0
-41 -100 0
99 -100 0
41 -99 100 0
c gate 101 41 -99 0
41 -101 0
-99 -101 0
-41 99 101 0
c gate 102 -100 -101 0
-100 -102 0
-101 -102 0
100 101 102 0
c gate 103 12 -28 0
12 -103 0
-28 -103 0
-12 28 103 0
c gate 104 11 -27 0
11 -104 0
-27 -104 0
-11 27 104 0
c gate 105 -103 -104 0
-103 -105 0
-104 -105 0
103 104 105 0
c gate 106 -10 26 0
-10 -106 0
26 -106 0
10 -26 106 0
c gate 107 -9 25 0
-9 -107 0
25 -107 0
9 -25 107 0
c gate 108 7 -23 0
7 -108 0
-23 -108 0
-7 23 108 0
c gate 109 6 -22 0
6 -109 0
-22 -109 0
-6 22 109 0
c gate 110 -2 18 0
-2 -110 0
18 -110 0
2 -18 110 0
c gate 111 -1 17 0
-1 -111 0
17 -111 0
1 -17 111 0
c gate 112 -110 -111 0
-110 -112 0
-111 -112 0
110 111 112 0
c gate 113 2 -18 0
2 -113 0
-18 -113 0
-2 18 113 0
c gate 114 -60 -113 0
-60 -114 0
-113 -114 0
60 113 114 0
c gate 115 -112 114 0
-112 -115 0
114 -115 0
112 -114 115 0
c gate 116 -59 -115 0
-59 -116 0
-115 -116 0
59 115 116 0
c gate 117 4 -20 0
4 -117 0
-20 -117 0
-4 20 117 0
c gate 118 -116 -117 0
-116 -118 0
-117 -118 0
116 117 118 0
c gate 119 -4 20 0
-4 -119 0
20 -119 0
4 -20 119 0
c gate 120 -118 -119 0
-118 -120 0
-119 -120 0
118 119 120 0
c gate 121 -50 -120 0
-50 -121 0
-120 -121 0
50 120 121 0
c gate 122 -48 -51 0
-48 -122 0
-51 -122 0
48 51 122 0
c gate 123 -121 122 0
-121 -123 0
122 -123 0
121 -122 123 0
c gate 124 -109 -123 0
-109 -124 0
-123 -124 0
109 123 124 0
c gate 125 -45 -124 0
-45 -125 0
-124 -125 0
45 124 125 0
c gate 126 -108 -125 0
-108 -126 0
-125 -126 0
108 125 126 0
c gate 127 -75 -78 0
-75 -127 0
-78 -127 0
75 78 127 0
c gate 128 -126 -127 0
-126 -128 0
-127 -128 0
126 127 128 0
c gate 129 8 -24 0
8 -129 0
-24 -129 0
-8 24 129 0
c gate 130 9 -25 0
9 -130 0
-25 -130 0
-9 25 130 0
c gate 131 -129 -130 0
-129 -131 0
-130 -131 0
129 130 131 0
c gate 132 -128 131 0
-128 -132 0
131 -132 0
128 -131 132 0
c gate 133 -107 -132 0
-107 -133 0
-132 -133 0
107 132 133 0
c gate 134 -82 -86 0
-82 -134 0
-86 -134 0
82 86 134 0
c gate 135 -133 -134 0
-133 -135 0
-134 -135 0
133 134 135 0
c gate 136 -106 -135 0
-106 -136 0
-135 -136 0
106 135 136 0
c gate 137 105 -136 0
105 -137 0
-136 -137 0
-105 136 137 0
c gate 138 -87 -90 0
-87 -138 0
-90 -138 0
87 90 138 0
c gate 139 105 138 0
105 -139 0
138 -139 0
-105 -138 139 0
c gate 140 -36 -42 0
-36 -140 0
-42 -140 0
36 42 140 0
c gate 141 -12 28 0
-12 -141 0
28 -141 0
12 -28 141 0
c gate 142 -140 -141 0
-140 -142 0
-141 -142 0
140 141 142 0
c gate 143 -139 142 0
-139 -143 0
142 -143 0
139 -142 143 0
c gate 144 137 143 0
137 -144 0
143 -144 0
-137 -143 144 0
c gate 145 136 138 0
136 -145 0
138 -145 0
-136 -138 145 0
c gate 146 -136 -138 0
-136 -146 0
-138 -146 0
136 138 146 0
c gate 147 -145 -146 0
-145 -147 0
-146 -147 0
145 146 147 0
c gate 148 10 -26 0
10 -148 0
-26 -148 0
-10 26 148 0
c gate 149 -131 -134 0
-131 -149 0
-134 -149 0
131 134 149 0
c gate 150 -148 -149 0
-148 -150 0
-149 -150 0
148 149 150 0
c gate 151 138 -150 0
138 -151 0
-150 -151 0
-138 150 151 0
c gate 152 -147 -151 0
-147 -152 0
-151 -152 0
147 151 152 0
c gate 153 131 134 0
131 -153 0
134 -153 0
-131 -134 153 0
c gate 154 -149 -153 0
-149 -154 0
-153 -154 0
149 153 154 0
c gate 155 133 134 0
133 -155 0
134 -155 0
-133 -134 155 0
c gate 156 -135 -155 0
-135 -156 0
-155 -156 0
135 155 156 0
c gate 157 154 156 0
154 -157 0
156 -157 0
-154 -156 157 0
c gate 158 -154 -156 0
-154 -158 0
-156 -158 0
154 156 158 0
c gate 159 -107 -130 0
-107 -159 0
-130 -159 0
107 130 159 0
c gate 160 128 159 0
128 -160 0
159 -160 0
-128 -159 160 0
c gate 161 -125 -128 0
-125 -161 0
-128 -161 0
125 128 161 0
c gate 162 -49 52 0
-49 -162 0
52 -162 0
49 -52 162 0
c gate 163 -120 162 0
-120 -163 0
162 -163 0
120 -162 163 0
c gate 164 48 163 0
48 -164 0
163 -164 0
-48 -163 164 0
c gate 165 -123 -164 0
-123 -165 0
-164 -165 0
123 164 165 0
c gate 166 -125 165 0
-125 -166 0
165 -166 0
125 -165 166 0
c gate 167 -162 166 0
-162 -167 0
166 -167 0
162 -166 167 0
c gate 168 -16 -32 0
-16 -168 0
-32 -168 0
16 32 168 0
c gate 169 16 32 0
16 -169 0
32 -169 0
-16 -32 169 0
c gate 170 -168 -169 0
-168 -170 0
-169 -170 0
168 169 170 0
c gate 171 15 31 0
15 -171 0
31 -171 0
-15 -31 171 0
c gate 172 -14 -30 0
-14 -172 0
-30 -172 0
14 30 172 0
c gate 173 -97 -172 0
-97 -173 0
-172 -173 0
97 172 173 0
c gate 174 -15 31 0
-15 -174 0
31 -174 0
15 -31 174 0
c gate 175 15 -31 0
15 -175 0
-31 -175 0
-15 31 175 0
c gate 176 -174 -175 0
-174 -176 0
-175 -176 0
174 175 176 0
c gate 177 173 -176 0
173 -177 0
-176 -177 0
-173 176 177 0
c gate 178 -171 -177 0
-171 -178 0
-177 -178 0
171 177 178 0
c gate 179 170 178 0
170 -179 0
178 -179 0
-170 -178 179 0
c gate 180 -170 -178 0
-170 -180 0
-178 -180 0
170 178 180 0
c gate 181 -179 -180 0
-179 -181 0
-180 -181 0
179 180 181 0
c gate 182 -39 -172 0
-39 -182 0
-172 -182 0
39 172 182 0
c gate 183 -171 -182 0
-171 -183 0
-182 -183 0
171 182 183 0
c gate 184 170 183 0
170 -184 0
183 -184 0
-170 -183 184 0
c gate 185 -170 -183 0
-170 -185 0
-183 -185 0
170 183 185 0
c gate 186 -184 -185 0
-184 -186 0
-185 -186 0
184 185 186 0
c gate 187 181 -186 0
181 -187 0
-186 -187 0
-181 186 187 0
c gate 188 -181 186 0
-181 -188 0
186 -188 0
181 -186 188 0
c gate 189 -187 -188 0
-187 -189 0
-188 -189 0
187 188 189 0
c gate 190 170 -189 0
170 -190 0
-189 -190 0
-170 189 190 0
c gate 191 167 -190 0
167 -191 0
-190 -191 0
-167 190 191 0
c gate 192 74 127 0
74 -192 0
127 -192 0
-74 -127 192 0
c gate 193 56 -110 0
56 -193 0
-110 -193 0
-56 110 193 0
c gate 194 -113 193 0
-113 -194 0
193 -194 0
113 -193 194 0
c gate 195 52 -69 0
52 -195 0
-69 -195 0
-52 69 195 0
c gate 196 -70 -195 0
-70 -196 0
-195 -196 0
70 195 196 0
c gate 197 49 -65 0
49 -197 0
-65 -197 0
-49 65 197 0
c gate 198 -49 65 0
-49 -198 0
65 -198 0
49 -65 198 0
c gate 199 -197 -198 0
-197 -199 0
-198 -199 0
197 198 199 0
c gate 200 196 199 0
196 -200 0
199 -200 0
-196 -199 200 0
c gate 201 -196 -199 0
-196 -201 0
-199 -201 0
196 199 201 0
c gate 202 -200 -201 0
-200 -202 0
-201 -202 0
200 201 202 0
c gate 203 56 66 0
56 -203 0
66 -203 0
-56 -66 203 0
c gate 204 61 203 0
61 -204 0
203 -204 0
-61 -203 204 0
c gate 205 -53 -54 0
-53 -205 0
-54 -205 0
53 54 205 0
c gate 206 67 -205 0
67 -206 0
-205 -206 0
-67 205 206 0
c gate 207 -63 206 0
-63 -207 0
206 -207 0
63 -206 207 0
c gate 208 -204 -207 0
-204 -208 0
-207 -208 0
204 207 208 0
c gate 209 202 208 0
202 -209 0
208 -209 0
-202 -208 209 0
c gate 210 -48 65 0
-48 -210 0
65 -210 0
48 -65 210 0
c gate 211 71 -210 0
71 -211 0
-210 -211 0
-71 210 211 0
c gate 212 209 -211 0
209 -212 0
-211 -212 0
-209 211 212 0
c gate 213 194 212 0
194 -213 0
212 -213 0
-194 -212 213 0
c gate 214 -74 213 0
-74 -214 0
213 -214 0
74 -213 214 0
c gate 215 -192 -214 0
-192 -215 0
-214 -215 0
192 214 215 0
c gate 216 -173 176 0
-173 -216 0
176 -216 0
173 -176 216 0
c gate 217 -177 -216 0
-177 -217 0
-216 -217 0
177 216 217 0
c gate 218 176 182 0
176 -218 0
182 -218 0
-176 -182 218 0
c gate 219 -176 -182 0
-176 -219 0
-182 -219 0
176 182 219 0
c gate 220 -218 -219 0
-218 -220 0
-219 -220 0
218 219 220 0
c gate 221 -217 -220 0
-217 -221 0
-220 -221 0
217 220 221 0
c gate 222 217 220 0
217 -222 0
220 -222 0
-217 -220 222 0
c gate 223 37 140 0
37 -223 0
140 -223 0
-37 -140 223 0
c gate 224 -94 -223 0
-94 -224 0
-223 -224 0
94 223 224 0
c gate 225 -222 -224 0
-222 -225 0
-224 -225 0
222 224 225 0
c gate 226 -221 225 0
-221 -226 0
225 -226 0
221 -225 226 0
c gate 227 189 226 0
189 -227 0
226 -227 0
-189 -226 227 0
c gate 228 215 227 0
215 -228 0
227 -228 0
-215 -227 228 0
c gate 229 134 138 0
134 -229 0
138 -229 0
-134 -138 229 0
c gate 230 -103 -141 0
-103 -230 0
-141 -230 0
103 141 230 0
c gate 231 -159 -230 0
-159 -231 0
-230 -231 0
159 230 231 0
c gate 232 229 231 0
229 -232 0
231 -232 0
-229 -231 232 0
c gate 233 192 -232 0
192 -233 0
-232 -233 0
-192 232 233 0
c gate 234 227 -233 0
227 -234 0
-233 -234 0
-227 233 234 0
c gate 235 -94 -140 0
-94 -235 0
-140 -235 0
94 140 235 0
c gate 236 -100 235 0
-100 -236 0
235 -236 0
100 -235 236 0
c gate 237 -101 -236 0
-101 -237 0
-236 -237 0
101 236 237 0
c gate 238 -222 237 0
-222 -238 0
237 -238 0
222 -237 238 0
c gate 239 -221 -238 0
-221 -239 0
-238 -239 0
221 238 239 0
c gate 240 -187 239 0
-187 -240 0
239 -240 0
187 -239 240 0
c gate 241 -188 -240 0
-188 -241 0
-240 -241 0
188 240 241 0
c gate 242 -234 241 0
-234 -242 0
241 -242 0
234 -241 242 0
c gate 243 -228 -242 0
-228 -243 0
-242 -243 0
228 242 243 0
c gate 244 191 -243 0
191 -244 0
-243 -244 0
-191 243 244 0
c gate 245 167 -184 0
167 -245 0
-184 -245 0
-167 184 245 0
c gate 246 179 245 0
179 -246 0
245 -246 0
-179 -245 246 0
c gate 247 163 166 0
163 -247 0
166 -247 0
-163 -166 247 0
c gate 248 45 123 0
45 -248 0
123 -248 0
-45 -123 248 0
c gate 249 -247 -248 0
-247 -249 0
-248 -249 0
247 248 249 0
c gate 250 -246 249 0
-246 -250 0
249 -250 0
246 -249 250 0
c gate 251 -191 250 0
-191 -251 0
250 -251 0
191 -250 251 0
c gate 252 -244 -251 0
-244 -252 0
-251 -252 0
244 251 252 0
c gate 253 161 -252 0
161 -253 0
-252 -253 0
-161 252 253 0
c gate 254 -160 -253 0
-160 -254 0
-253 -254 0
160 253 254 0
c gate 255 -158 -254 0
-158 -255 0
-254 -255 0
158 254 255 0
c gate 256 -157 -255 0
-157 -256 0
-255 -256 0
157 255 256 0
c gate 257 -152 -256 0
-152 -257 0
-256 -257 0
152 256 257 0
c gate 258 -136 151 0
-136 -258 0
151 -258 0
136 -151 258 0
c gate 259 -146 -258 0
-146 -259 0
-258 -259 0
146 258 259 0
c gate 260 -257 259 0
-257 -260 0
259 -260 0
257 -259 260 0
c gate 261 -144 -260 0
-144 -261 0
-260 -261 0
144 260 261 0
c gate 262 35 176 0
35 -262 0
176 -262 0
-35 -176 262 0
c gate 263 144 -262 0
144 -263 0
-262 -263 0
-144 262 263 0
c gate 264 13 -29 0
13 -264 0
-29 -264 0
-13 29 264 0
c gate 265 -33 -264 0
-33 -265 0
-264 -265 0
33 264 265 0
c gate 266 137 265 0
137 -266 0
265 -266 0
-137 -265 266 0
c gate 267 176 -266 0
176 -267 0
-266 -267 0
-176 266 267 0
c gate 268 -143 265 0
-143 -268 0
265 -268 0
143 -265 268 0
c gate 269 -34 -174 0
-34 -269 0
-174 -269 0
34 174 269 0
c gate 270 -268 269 0
-268 -270 0
269 -270 0
268 -269 270 0
c gate 271 -267 270 0
-267 -271 0
270 -271 0
267 -270 271 0
c gate 272 170 -175 0
170 -272 0
-175 -272 0
-170 175 272 0
c gate 273 271 272 0
271 -273 0
272 -273 0
-271 -272 273 0
c gate 274 -263 -273 0
-263 -274 0
-273 -274 0
263 273 274 0
c gate 275 -261 274 0
-261 -275 0
274 -275 0
261 -274 275 0
c gate 276 -74 212 0
-74 -276 0
212 -276 0
74 -212 276 0
c gate 277 192 232 0
192 -277 0
232 -277 0
-192 -232 277 0
c gate 278 -276 -277 0
-276 -278 0
-277 -278 0
276 277 278 0
c gate 279 -224 -278 0
-224 -279 0
-278 -279 0
224 278 279 0
c gate 280 -235 -279 0
-235 -280 0
-279 -280 0
235 279 280 0
c gate 281 275 -280 0
275 -281 0
-280 -281 0
-275 280 281 0
c gate 282 -215 -233 0
-215 -282 0
-233 -282 0
215 233 282 0
c gate 283 -224 282 0
-224 -283 0
282 -283 0
224 -282 283 0
c gate 284 -235 -283 0
-235 -284 0
-283 -284 0
235 283 284 0
c gate 285 -275 284 0
-275 -285 0
284 -285 0
275 -284 285 0
c gate 286 -281 -285 0
-281 -286 0
-285 -286 0
281 285 286 0
c gate 287 102 286 0
102 -287 0
286 -287 0
-102 -286 287 0
c gate 288 -102 -286 0
-102 -288 0
-286 -288 0
102 286 288 0
c gate 289 -287 -288 0
-287 -289 0
-288 -289 0
287 288 289 0
c PO
-289 0
